
  32    4
  10   10   10   10

   0   0   0   0   0  10 2 4 5 6 7 9 10 12 14 17 
   9   1   0   1   1   4 29 20 16 3 
   4   4   1   4   0   6 31 30 28 23 19 11 
   2   0   5   4   2   3 16 15 8 
   6   4   8   0   5   7 29 28 23 19 18 15 13 
   9   7   5   0   3   4 31 20 19 13 
   9   6   0   5   9   5 30 29 22 19 15 
   1   3   4   5   0   5 29 28 23 19 18 
   1   2   2   3   0   5 30 29 27 19 18 
   5   3   0   6   2   4 31 30 26 15 
   5   7   4   2   0   3 22 18 15 
   7   0   5   1   8   4 27 26 21 20 
   9   2   0   3   4   4 27 26 22 21 
   8   3   1   0   1   2 26 15 
   5   3   2   4   0   3 27 24 21 
   5   4   0   6   5   3 26 25 22 
   4   6   5   0   1   1 18 
   2   3   8   2   0   3 26 25 24 
   4   3   0   6   3   2 26 24 
   4   9   4   0   4   2 28 24 
   9   4   0   7   4   1 25 
   8   0   4   8   5   1 24 
   4   4   1   0   2   1 25 
   5   5   0   3   6   1 32
   2   4   0   4   5   1 32
   2   0   3   4   4   1 32
   1   3   3   4   0   1 32
   2   0   4   1   1   1 32
   2   0   5   5   8   1 32
   5   0   8   3   5   1 32
   5   2   2   5   0   1 32
   0   0   0   0   0   0 
